0001 1
0002 1
0003 1
0004 20
0005 12
0006 1
0007 19
0008 4
0009 1
0010 3
0011 13
0012 20
0013 20
0014 1
0015 1
0016 1
0017 1
0018 9
0019 1
0020 13
0021 11
0022 1
0023 1
0024 18
0025 10
0026 13
0027 13
0028 5
0029 9
0030 3
0031 8
0032 13
0033 6
0034 18
0035 1
0036 20
0037 3
0038 17
0039 1
0040 2
0041 7
0042 1
0043 1
0044 9
0045 9
0046 4
0047 7
0048 13
0049 8
0050 1
0051 4
0052 9
0053 20
0054 1
0055 20
0056 11
0057 4
0058 1
0059 6
0060 20
0061 1
0062 1
0063 1
0064 7
0065 20
0066 14
0067 1
0068 20
0069 11
0070 1
0071 7
0072 20
0073 9
0074 3
0075 1
0076 1
0077 3
0078 14
0079 9
0080 20
0081 20
0082 3
0083 1
0084 4
0085 4
0086 6
0087 3
0088 5
0089 4
0090 5
0091 1
0092 2
0093 8
0094 3
0095 1
0096 11
0097 6
0098 4
0099 1
0100 9
0101 9
0102 11
0103 15
0104 19
0105 1
0106 20
0107 3
0108 11
0109 1
0110 1
0111 13
0112 3
0113 7
0114 1
0115 3
0116 13
0117 4
0118 13
0119 9
0120 13
0121 12
0122 1
0123 20
0124 12
0125 1
0126 1
0127 7
0128 2
0129 18
0130 20
0131 20
0132 1
0133 20
0134 3
0135 3
0136 5
0137 3
0138 16
0139 6
0140 7
0141 8
0142 3
0143 13
0144 11
0145 1
0146 2
0147 5
0148 12
0149 13
0150 7
0151 19
0152 9
0153 1
0154 7
0155 1
0156 13
0157 11
0158 5
0159 1
0160 1
0161 20
0162 13
0163 4
0164 3
0165 3
0166 19
0167 3
0168 13
0169 9
0170 20
0171 4
0172 14
0173 10
0174 6
0175 11
0176 3
0177 1
0178 1
0179 5
0180 10
0181 13
0182 9
0183 1
0184 3
0185 13
0186 6
0187 19
0188 6
0189 6
0190 10
0191 17
0192 8
0193 4
0194 1
0195 18
0196 1
0197 20
0198 4
0199 6
0200 13
0201 8
0202 16
0203 3
0204 1
0205 1
0206 14
0207 1
0208 1
0209 3
0210 15
0211 15
0212 15
0213 20
0214 4
0215 10
0216 1
0217 1
0218 5
0219 3
0220 3
0221 9
0222 3
0223 1
0224 13
0225 1
0226 13
0227 5
0228 9
0229 3
0230 11
0231 7
0232 19
0233 1
0234 20
0235 16
0236 1
0237 19
0238 6
0239 19
0240 17
0241 3
0242 11
0243 9
0244 9
0245 8
0246 10
0247 9
0248 17
0249 2
0250 17
0251 17
0252 16
0253 17
0254 17
0255 16
0256 16
0257 16
0258 18
0259 5
0260 5
0261 18
0262 2
0263 13
0264 4
0265 10
0266 4
0267 3
0268 14
0269 18
0270 14
0271 9
0272 5
0273 2
0274 11
0275 20
0276 12
0277 6
0278 3
0279 1
0280 20
0281 3
0282 16
0283 16
0284 20
0285 1
0286 5
0287 5
0288 10
0289 11
0290 7
0291 11
0292 11
0293 11
0294 1
0295 12
0296 11
0297 1
0298 9
0299 3
0300 11
0301 18
0302 7
0303 1
0304 3
0305 13
0306 5
0307 5
0308 17
0309 3
0310 1
0311 20
0312 1
0313 16
0314 6
0315 8
0316 4
0317 2
0318 12
0319 12
0320 10
0321 6
0322 1
0323 1
0324 18
0325 7
0326 7
0327 8
0328 10
0329 1
0330 1
0331 14
0332 16
0333 6
0334 4
0335 20
0336 12
0337 1
0338 9
0339 3
0340 19
0341 2
0342 20
0343 12
0344 1
0345 1
0346 20
0347 3
0348 20
0349 20
0350 13
0351 3
0352 6
0353 14
0354 14
0355 1
0356 5
0357 7
0358 3
0359 14
0360 9
0361 11
0362 14
0363 18
0364 12
0365 13
0366 10
0367 18
0368 3
0369 1
0370 1
0371 17
0372 7
0373 6
0374 2
0375 14
0376 3
0377 13
0378 18
0379 12
0380 8
0381 1
0382 5
0383 15
0384 6
0385 8
0386 8
0387 11
0388 17
0389 5
0390 1
0391 19
0392 20
0393 20
0394 20
0395 19
0396 20
0397 20
0398 20
0399 20
0400 1
0401 3
0402 9
0403 8
0404 1
0405 7
0406 3
0407 12
0408 1
0409 3
0410 20
0411 1
0412 1
0413 6
0414 6
0415 5
0416 14
0417 7
0418 1
0419 7
0420 3
0421 11
0422 5
0423 18
0424 7
0425 3
0426 1
0427 7
0428 16
0429 5
0430 18
0431 9
0432 7
0433 5
0434 1
0435 18
0436 1
0437 9
0438 12
0439 3
0440 1
0441 5
0442 3
0443 1
0444 15
0445 6
0446 7
0447 15
0448 13
0449 1
0450 4
0451 8
0452 10
0453 17
0454 1
0455 20
0456 3
0457 3
0458 6
0459 1
0460 18
0461 7
